;; lemma to synthesize
(synth-fun lemma ((x Int) (nil Int)) Bool

           ((Start Bool) (Rec Bool) (B Bool) (I Int))

           ((Start Bool
                  ((=> Rec B)))
           (Rec Bool
                  ((list I) (slist I)))
           (B Bool
                  ((=> B B)
                   (and B B)
                   (or B B)
                   (not B)
                   (list I) (slist I)))
            (I Int (x nil
                   (next I)
                   (key I))))

)
